301 5
10 10 10 10 10 

0 0 0 0 0 0 5 2 34 46 78 110 
0 0 0 0 0 0 5 3 29 30 31 32 
10 1 1 0 1 0 1 4 
2 2 1 0 5 0 2 28 5 
6 2 3 0 1 0 1 6 
10 4 4 0 2 0 3 27 26 7 
9 2 5 0 3 0 1 8 
3 3 3 0 2 0 1 9 
1 2 2 0 1 0 1 10 
9 1 5 0 6 0 1 11 
3 4 1 0 2 0 1 12 
3 3 1 0 2 0 2 13 274 
5 1 2 0 2 0 1 14 
4 4 2 0 4 0 2 25 15 
3 3 3 0 2 0 1 16 
3 3 3 0 3 0 1 17 
6 2 3 0 1 0 1 18 
8 5 4 0 1 0 1 19 
7 2 2 0 3 0 1 20 
8 2 2 0 2 0 1 21 
6 3 2 0 1 0 1 22 
8 3 2 0 2 0 1 23 
3 2 4 0 2 0 1 24 
1 3 2 0 2 0 1 33 
6 3 5 0 2 0 1 33 
3 2 2 0 2 0 1 33 
4 2 1 0 3 0 1 33 
2 2 1 0 3 0 1 33 
8 2 2 0 4 0 1 33 
8 3 3 0 2 0 1 33 
10 1 1 0 4 0 1 33 
5 3 3 0 5 0 1 33 
0 0 0 0 0 0 1 278 
0 0 0 0 0 0 3 35 36 44 
7 0 0 0 0 1 2 38 37 
7 0 0 0 0 2 1 37 
1 0 0 0 0 2 1 39 
9 0 0 0 0 5 1 39 
1 0 0 0 0 2 1 40 
8 0 0 0 0 5 1 41 
9 0 0 0 0 3 1 42 
8 0 0 0 0 1 2 43 269 
9 0 0 0 0 1 1 45 
10 0 0 0 0 3 1 45 
0 0 0 0 0 0 5 142 164 186 208 230 
0 0 0 0 0 0 8 47 70 71 72 73 74 75 76 
1 1 0 1 1 0 1 48 
5 3 0 2 2 0 1 49 
3 5 0 3 2 0 1 50 
5 1 0 5 2 0 1 51 
4 1 0 1 2 0 1 52 
4 3 0 3 2 0 1 53 
3 1 0 1 2 0 2 69 54 
4 1 0 1 4 0 1 55 
9 2 0 4 2 0 1 56 
9 1 0 1 1 0 1 57 
2 3 0 3 2 0 1 58 
10 3 0 2 3 0 1 59 
2 5 0 2 2 0 1 60 
10 4 0 4 5 0 1 61 
6 2 0 4 3 0 2 62 84 
4 3 0 4 1 0 1 63 
9 5 0 4 3 0 1 64 
3 2 0 2 2 0 1 65 
4 3 0 1 3 0 1 66 
1 4 0 3 2 0 1 67 
10 1 0 2 2 0 1 68 
3 3 0 1 5 0 1 77 
10 1 0 3 4 0 1 77 
1 1 0 3 3 0 1 77 
1 2 0 6 3 0 1 77 
1 1 0 2 1 0 1 77 
7 2 0 2 5 0 1 77 
8 4 0 3 1 0 1 77 
1 4 0 1 1 0 1 77 
9 3 0 1 4 0 1 77 
0 0 0 0 0 0 1 278 
0 0 0 0 0 0 2 79 82 
6 0 1 1 1 0 1 80 
7 0 2 3 1 0 1 81 
8 0 1 3 3 0 1 83 
7 0 3 2 4 0 1 83 
3 0 2 5 2 0 1 84 
4 0 2 2 2 0 2 88 85 
6 0 3 2 3 0 1 86 
4 0 2 3 2 0 1 87 
7 0 1 2 2 0 3 91 90 89 
4 0 2 2 4 0 2 91 89 
9 0 3 1 4 0 2 93 92 
8 0 4 2 2 0 2 93 92 
10 0 2 3 2 0 1 92 
10 0 3 2 4 0 3 97 95 94 
2 0 2 3 4 0 3 97 95 94 
4 0 1 1 2 0 1 96 
4 0 2 3 1 0 2 96 268 
7 0 1 4 3 0 1 98 
2 0 3 2 1 0 1 98 
5 0 4 2 3 0 1 99 
6 0 5 4 7 0 1 100 
8 0 3 3 1 0 2 103 101 
3 0 4 3 3 0 1 102 
9 0 2 2 3 0 1 104 
9 0 2 1 1 0 1 104 
4 0 2 2 2 0 1 105 
3 0 4 3 3 0 1 106 
1 0 1 3 1 0 1 107 
9 0 4 3 1 0 1 108 
1 0 4 3 3 0 1 109 
0 0 0 0 0 0 1 278 
0 0 0 0 0 0 2 111 140 
10 0 1 1 0 1 1 112 
10 0 3 4 0 4 2 139 113 
4 0 4 4 0 1 3 138 137 114 
7 0 2 3 0 2 1 115 
7 0 2 3 0 6 2 136 116 
8 0 2 4 0 4 3 135 134 117 
8 0 1 3 0 1 1 118 
6 0 3 2 0 2 1 119 
8 0 2 2 0 1 1 120 
2 0 6 3 0 2 1 121 
4 0 1 2 0 2 1 122 
5 0 1 3 0 2 2 133 123 
5 0 2 2 0 1 1 124 
9 0 1 2 0 3 1 125 
4 0 5 4 0 5 1 126 
8 0 2 3 0 2 1 127 
10 0 3 2 0 5 1 128 
4 0 2 5 0 3 1 129 
2 0 4 2 0 1 1 130 
8 0 3 2 0 2 2 131 237 
8 0 2 2 0 3 1 132 
5 0 2 2 0 2 1 141 
10 0 4 2 0 3 1 141 
7 0 3 1 0 1 1 141 
4 0 2 1 0 2 1 141 
3 0 2 2 0 2 1 141 
4 0 1 2 0 3 1 141 
8 0 4 2 0 4 1 141 
7 0 1 1 0 1 1 141 
2 0 4 4 0 4 1 141 
0 0 0 0 0 0 1 278 
0 0 0 0 0 0 2 143 145 
2 0 1 0 1 0 2 148 144 
2 0 4 0 2 0 1 146 
2 0 2 0 5 0 1 146 
4 0 4 0 4 0 1 147 
4 0 2 0 2 0 1 149 
1 0 3 0 1 0 1 149 
7 0 2 0 3 0 2 155 150 
2 0 2 0 3 0 2 160 151 
3 0 1 0 1 0 1 152 
9 0 4 0 2 0 1 153 
3 0 4 0 3 0 2 162 154 
3 0 3 0 3 0 1 156 
8 0 1 0 2 0 1 156 
9 0 2 0 2 0 1 157 
5 0 3 0 2 0 1 158 
2 0 4 0 2 0 1 159 
4 0 3 0 2 0 2 161 268 
10 0 2 0 4 0 1 161 
3 0 1 0 4 0 1 163 
4 0 2 0 2 0 1 163 
0 0 0 0 0 0 1 278 
0 0 0 0 0 0 1 165 
9 1 0 0 0 1 2 168 166 
5 4 0 0 0 2 2 171 167 
3 3 0 0 0 4 1 169 
10 3 0 0 0 3 1 169 
8 1 0 0 0 2 1 170 
8 2 0 0 0 1 1 172 
7 1 0 0 0 1 1 172 
3 1 0 0 0 3 3 178 175 173 
9 2 0 0 0 3 1 174 
6 1 0 0 0 3 1 176 
3 3 0 0 0 2 1 176 
2 2 0 0 0 2 2 181 177 
9 2 0 0 0 7 1 179 
6 2 0 0 0 2 1 179 
9 5 0 0 0 1 1 180 
9 6 0 0 0 2 1 182 
4 2 0 0 0 2 1 182 
3 5 0 0 0 2 1 183 
7 1 0 0 0 2 1 184 
9 3 0 0 0 5 1 185 
0 0 0 0 0 0 1 278 
0 0 0 0 0 0 1 187 
9 0 1 0 1 0 2 191 188 
6 0 2 0 5 0 2 194 189 
4 0 1 0 1 0 1 190 
6 0 1 0 1 0 1 192 
5 0 1 0 1 0 1 192 
6 0 2 0 1 0 2 197 193 
7 0 4 0 5 0 2 201 195 
7 0 1 0 2 0 2 201 195 
4 0 2 0 1 0 1 196 
2 0 4 0 4 0 1 198 
8 0 5 0 4 0 1 198 
8 0 5 0 2 0 2 206 199 
4 0 2 0 1 0 1 200 
8 0 2 0 7 0 1 202 
8 0 2 0 2 0 1 202 
7 0 4 0 3 0 1 203 
9 0 2 0 1 0 1 204 
2 0 2 0 2 0 1 205 
2 0 2 0 3 0 1 207 
6 0 5 0 3 0 1 207 
0 0 0 0 0 0 1 278 
0 0 0 0 0 0 1 209 
6 0 1 0 0 1 1 210 
8 0 1 0 0 1 2 213 211 
4 0 1 0 0 4 1 212 
8 0 1 0 0 1 2 215 214 
4 0 4 0 0 2 1 214 
5 0 3 0 0 4 2 220 216 
7 0 5 0 0 3 3 220 219 218 
3 0 3 0 0 3 2 219 217 
1 0 2 0 0 3 1 218 
4 0 2 0 0 2 2 222 221 
1 0 1 0 0 2 1 221 
8 0 5 0 0 3 1 221 
8 0 2 0 0 3 1 223 
2 0 3 0 0 3 1 223 
9 0 5 0 0 2 1 224 
3 0 1 0 0 1 1 225 
2 0 3 0 0 4 1 226 
2 0 4 0 0 2 1 227 
10 0 1 0 0 3 1 228 
1 0 2 0 0 3 1 229 
0 0 0 0 0 0 1 278 
0 0 0 0 0 0 2 231 233 
10 0 0 0 1 0 1 232 
5 0 0 0 3 0 2 237 234 
10 0 0 0 2 0 2 237 234 
6 0 0 0 3 0 1 235 
4 0 0 0 5 0 2 239 236 
10 0 0 0 3 0 1 238 
5 0 0 0 3 0 1 238 
8 0 0 0 1 0 1 240 
3 0 0 0 2 0 1 240 
3 0 0 0 2 0 1 241 
0 0 0 0 0 0 3 242 254 266 
0 0 0 0 0 0 2 243 244 
2 1 0 0 0 0 2 247 246 
8 2 0 0 0 0 1 245 
6 3 0 0 0 0 2 251 247 
1 1 0 0 0 0 2 251 248 
4 2 0 0 0 0 1 248 
1 2 0 0 0 0 1 249 
3 3 0 0 0 0 1 250 
2 5 0 0 0 0 1 252 
3 3 0 0 0 0 1 252 
2 3 0 0 0 0 1 253 
0 0 0 0 0 0 1 278 
0 0 0 0 0 0 2 255 257 
10 0 1 0 0 0 1 256 
7 0 2 0 0 0 2 262 258 
7 0 2 0 0 0 2 262 260 
2 0 2 0 0 0 1 259 
5 0 3 0 0 0 2 264 260 
10 0 4 0 0 0 1 261 
1 0 2 0 0 0 1 263 
9 0 2 0 0 0 1 264 
4 0 3 0 0 0 1 265 
6 0 4 0 0 0 1 265 
0 0 0 0 0 0 1 278 
0 0 0 0 0 0 2 267 269 
1 0 0 0 1 0 3 274 272 268 
3 0 0 0 7 0 1 270 
6 0 0 0 4 0 2 274 273 
8 0 0 0 2 0 1 271 
8 0 0 0 2 0 1 273 
3 0 0 0 2 0 1 273 
8 0 0 0 2 0 1 275 
1 0 0 0 1 0 1 275 
10 0 0 0 3 0 1 276 
6 0 0 0 1 0 1 277 
0 0 0 0 0 0 1 278 
0 0 0 0 0 0 1 279 
7 1 0 0 0 0 1 280 
2 1 0 0 0 0 2 283 281 
10 3 0 0 0 0 1 282 
2 2 0 0 0 0 2 285 284 
7 4 0 0 0 0 2 287 285 
4 2 0 0 0 0 2 287 286 
5 5 0 0 0 0 1 286 
2 3 0 0 0 0 1 288 
8 1 0 0 0 0 1 288 
10 3 0 0 0 0 1 289 
0 0 0 0 0 0 1 290 
0 0 0 0 0 0 3 291 297 298 
9 0 0 0 0 1 2 300 292 
7 0 0 0 0 2 1 293 
6 0 0 0 0 1 1 294 
1 0 0 0 0 4 1 295 
10 0 0 0 0 4 1 296 
2 0 0 0 0 2 1 299 
6 0 0 0 0 3 1 300 
9 0 0 0 0 3 1 299 
7 0 0 0 0 2 1 301 
2 0 0 0 0 3 1 301 
0 0 0 0 0 0 0 
